min: c;

c = 4.03820071716011 * u3_t10_h0 + 3.87422093478939 * u3_t10_h1 + 3.12074256074567 * u3_t4_h2 + 3.12074256074567 * u3_t10_h2 + 3.26164272347754 * u3_t4_h3 + 3.26164272347754 * u3_t10_h3 + 2.99071686468326 * u3_t4_h4 + 2.99071686468326 * u3_t10_h4 + 3.78911484916221 * u3_t4_h5 + 3.78911484916221 * u3_t10_h5 + 3.93584930284598 * u3_t4_h6 + 3.93584930284598 * u3_t10_h6 + 4.3918235403584 * u3_t4_h7 + 4.3918235403584 * u3_t9_h7 + 4.3918235403584 * u3_t10_h7 + 5.35657491584115 * u3_t4_h8 + 5.35657491584115 * u3_t9_h8 + 5.27440760790772 * u3_t4_h9 + 5.27440760790772 * u3_t9_h9 + 5.43940289782185 * u3_t4_h10 + 5.43940289782185 * u3_t6_h10 + 5.43940289782185 * u3_t9_h10 + 3.82322112434152 * u3_t3_h11 + 3.82322112434152 * u3_t4_h11 + 3.82322112434152 * u3_t6_h11 + 3.82322112434152 * u3_t9_h11 + 6.00344874896901 * u3_t3_h12 + 6.00344874896901 * u3_t4_h12 + 6.00344874896901 * u3_t6_h12 + 6.00344874896901 * u3_t9_h12 + 4.26308831924117 * u3_t3_h13 + 4.26308831924117 * u3_t4_h13 + 4.26308831924117 * u3_t5_h13 + 4.26308831924117 * u3_t6_h13 + 4.26308831924117 * u3_t9_h13 + 5.82226909964812 * u3_t3_h14 + 5.82226909964812 * u3_t4_h14 + 5.82226909964812 * u3_t5_h14 + 5.82226909964812 * u3_t6_h14 + 5.82226909964812 * u3_t9_h14 + 6.20644392433416 * u3_t2_h15 + 6.20644392433416 * u3_t3_h15 + 6.20644392433416 * u3_t4_h15 + 6.20644392433416 * u3_t5_h15 + 6.20644392433416 * u3_t6_h15 + 6.20644392433416 * u3_t9_h15 + 5.63174696943247 * u3_t2_h16 + 5.63174696943247 * u3_t4_h16 + 5.63174696943247 * u3_t5_h16 + 5.63174696943247 * u3_t6_h16 + 5.63174696943247 * u3_t9_h16 + 6.63198305899198 * u3_t2_h17 + 6.63198305899198 * u3_t4_h17 + 6.63198305899198 * u3_t6_h17 + 6.63198305899198 * u3_t9_h17 + 6.59344070270602 * u3_t2_h18 + 6.59344070270602 * u3_t6_h18 + 6.59344070270602 * u3_t9_h18 + 5.6437680611657 * u3_t2_h19 + 5.6437680611657 * u3_t9_h19 + 5.93098606117518 * u3_t1_h20 + 5.93098606117518 * u3_t2_h20 + 5.93098606117518 * u3_t8_h20 + 5.93098606117518 * u3_t9_h20 + 5.4217725742733 * u3_t1_h21 + 5.4217725742733 * u3_t2_h21 + 5.4217725742733 * u3_t7_h21 + 5.4217725742733 * u3_t8_h21 + 5.4217725742733 * u3_t9_h21 + 5.15051876347091 * u3_t1_h22 + 5.15051876347091 * u3_t7_h22 + 5.15051876347091 * u3_t8_h22 + 5.12666115880164 * u3_t1_h23 + 5.12666115880164 * u3_t7_h23 + 5.12666115880164 * u3_t8_h23;
0 <= u3_t1_h20 <= 1;
0 <= u3_t1_h21 <= 1;
0 <= u3_t1_h22 <= 1;
0 <= u3_t1_h23 <= 1;
u3_t1_h20 + u3_t1_h21 + u3_t1_h22 + u3_t1_h23 = 2;
0 <= u3_t2_h15 <= 1;
0 <= u3_t2_h16 <= 1;
0 <= u3_t2_h17 <= 1;
0 <= u3_t2_h18 <= 1;
0 <= u3_t2_h19 <= 1;
0 <= u3_t2_h20 <= 1;
0 <= u3_t2_h21 <= 1;
u3_t2_h15 + u3_t2_h16 + u3_t2_h17 + u3_t2_h18 + u3_t2_h19 + u3_t2_h20 + u3_t2_h21 = 3;
0 <= u3_t3_h11 <= 1;
0 <= u3_t3_h12 <= 1;
0 <= u3_t3_h13 <= 1;
0 <= u3_t3_h14 <= 1;
0 <= u3_t3_h15 <= 1;
u3_t3_h11 + u3_t3_h12 + u3_t3_h13 + u3_t3_h14 + u3_t3_h15 = 2;
0 <= u3_t4_h2 <= 1;
0 <= u3_t4_h3 <= 1;
0 <= u3_t4_h4 <= 1;
0 <= u3_t4_h5 <= 1;
0 <= u3_t4_h6 <= 1;
0 <= u3_t4_h7 <= 1;
0 <= u3_t4_h8 <= 1;
0 <= u3_t4_h9 <= 1;
0 <= u3_t4_h10 <= 1;
0 <= u3_t4_h11 <= 1;
0 <= u3_t4_h12 <= 1;
0 <= u3_t4_h13 <= 1;
0 <= u3_t4_h14 <= 1;
0 <= u3_t4_h15 <= 1;
0 <= u3_t4_h16 <= 1;
0 <= u3_t4_h17 <= 1;
u3_t4_h2 + u3_t4_h3 + u3_t4_h4 + u3_t4_h5 + u3_t4_h6 + u3_t4_h7 + u3_t4_h8 + u3_t4_h9 + u3_t4_h10 + u3_t4_h11 + u3_t4_h12 + u3_t4_h13 + u3_t4_h14 + u3_t4_h15 + u3_t4_h16 + u3_t4_h17 = 3;
0 <= u3_t5_h13 <= 1;
0 <= u3_t5_h14 <= 1;
0 <= u3_t5_h15 <= 1;
0 <= u3_t5_h16 <= 1;
u3_t5_h13 + u3_t5_h14 + u3_t5_h15 + u3_t5_h16 = 2;
0 <= u3_t6_h10 <= 1;
0 <= u3_t6_h11 <= 1;
0 <= u3_t6_h12 <= 1;
0 <= u3_t6_h13 <= 1;
0 <= u3_t6_h14 <= 1;
0 <= u3_t6_h15 <= 1;
0 <= u3_t6_h16 <= 1;
0 <= u3_t6_h17 <= 1;
0 <= u3_t6_h18 <= 1;
u3_t6_h10 + u3_t6_h11 + u3_t6_h12 + u3_t6_h13 + u3_t6_h14 + u3_t6_h15 + u3_t6_h16 + u3_t6_h17 + u3_t6_h18 = 2;
0 <= u3_t7_h21 <= 1;
0 <= u3_t7_h22 <= 1;
0 <= u3_t7_h23 <= 1;
u3_t7_h21 + u3_t7_h22 + u3_t7_h23 = 2;
0 <= u3_t8_h20 <= 1;
0 <= u3_t8_h21 <= 1;
0 <= u3_t8_h22 <= 1;
0 <= u3_t8_h23 <= 1;
u3_t8_h20 + u3_t8_h21 + u3_t8_h22 + u3_t8_h23 = 1;
0 <= u3_t9_h7 <= 1;
0 <= u3_t9_h8 <= 1;
0 <= u3_t9_h9 <= 1;
0 <= u3_t9_h10 <= 1;
0 <= u3_t9_h11 <= 1;
0 <= u3_t9_h12 <= 1;
0 <= u3_t9_h13 <= 1;
0 <= u3_t9_h14 <= 1;
0 <= u3_t9_h15 <= 1;
0 <= u3_t9_h16 <= 1;
0 <= u3_t9_h17 <= 1;
0 <= u3_t9_h18 <= 1;
0 <= u3_t9_h19 <= 1;
0 <= u3_t9_h20 <= 1;
0 <= u3_t9_h21 <= 1;
u3_t9_h7 + u3_t9_h8 + u3_t9_h9 + u3_t9_h10 + u3_t9_h11 + u3_t9_h12 + u3_t9_h13 + u3_t9_h14 + u3_t9_h15 + u3_t9_h16 + u3_t9_h17 + u3_t9_h18 + u3_t9_h19 + u3_t9_h20 + u3_t9_h21 = 2;
0 <= u3_t10_h0 <= 1;
0 <= u3_t10_h1 <= 1;
0 <= u3_t10_h2 <= 1;
0 <= u3_t10_h3 <= 1;
0 <= u3_t10_h4 <= 1;
0 <= u3_t10_h5 <= 1;
0 <= u3_t10_h6 <= 1;
0 <= u3_t10_h7 <= 1;
u3_t10_h0 + u3_t10_h1 + u3_t10_h2 + u3_t10_h3 + u3_t10_h4 + u3_t10_h5 + u3_t10_h6 + u3_t10_h7 = 3;
